c 1 root
c 2 API
c 3 OpenCL
c 4 CUDA
c 5 TextureMemory
c 6 Linear1D
c 7 Linear2D
c 8 Array2D
c 9 LocalMemory
c 10 Blocksize
c 11 bs_32x1
c 12 bs_32x8
c 13 bs_32x16
c 14 bs_32x32
c 15 bs_64x1
c 16 bs_64x4
c 17 bs_64x16
c 18 bs_128x1
c 19 bs_128x2
c 20 bs_128x4
c 21 bs_128x8
c 22 bs_256x4
c 23 bs_512x1
c 24 bs_512x2
c 25 bs_1024x1
c 26 Ldg
c 27 bs_32x2
c 28 bs_32x4
c 29 bs_64x2
c 30 bs_64x8
c 31 bs_256x1
c 32 bs_256x2
c 33 padding_0
c 34 padding_32
c 35 padding_64
c 36 padding_96
c 37 padding_128
c 38 padding_160
c 39 padding_192
c 40 padding_224
c 41 padding_256
c 42 padding_288
c 43 padding_320
c 44 padding_352
c 45 padding_384
c 46 padding_416
c 47 padding_448
c 48 padding_480
c 49 padding_512
c 50 pixelPerThread_1
c 51 pixelPerThread_2
c 52 pixelPerThread_3
c 53 pixelPerThread_4
p cnf 53 428
1 0
2 0
10 0
1 -2 0
2 -3 0
2 -4 0
1 -5 0
5 -6 0
5 -7 0
5 -8 0
1 -9 0
1 -10 0
10 -11 0
10 -12 0
10 -13 0
10 -14 0
10 -15 0
10 -16 0
10 -17 0
10 -18 0
10 -19 0
10 -20 0
10 -21 0
10 -22 0
10 -23 0
10 -24 0
10 -25 0
5 -26 0
10 -27 0
10 -28 0
10 -29 0
10 -30 0
10 -31 0
10 -32 0
1 -33 0
1 -34 0
1 -35 0
1 -36 0
1 -37 0
1 -38 0
1 -39 0
1 -40 0
1 -41 0
1 -42 0
1 -43 0
1 -44 0
1 -45 0
1 -46 0
1 -47 0
1 -48 0
1 -49 0
1 -50 0
1 -51 0
1 -52 0
1 -53 0
4 6 7 26 3 -2 0
-4 -6 0
-4 -7 0
-4 -26 0
-4 -3 0
-6 -7 0
-6 -26 0
-6 -3 0
-7 -26 0
-7 -3 0
-26 -3 0
6 7 26 8 -5 0
-6 -7 0
-6 -26 0
-6 -8 0
-7 -26 0
-7 -8 0
-26 -8 0
12 13 14 15 16 17 18 19 20 21 22 23 24 25 27 28 29 30 31 32 11 -10 0
-12 -13 0
-12 -14 0
-12 -15 0
-12 -16 0
-12 -17 0
-12 -18 0
-12 -19 0
-12 -20 0
-12 -21 0
-12 -22 0
-12 -23 0
-12 -24 0
-12 -25 0
-12 -27 0
-12 -28 0
-12 -29 0
-12 -30 0
-12 -31 0
-12 -32 0
-12 -11 0
-13 -14 0
-13 -15 0
-13 -16 0
-13 -17 0
-13 -18 0
-13 -19 0
-13 -20 0
-13 -21 0
-13 -22 0
-13 -23 0
-13 -24 0
-13 -25 0
-13 -27 0
-13 -28 0
-13 -29 0
-13 -30 0
-13 -31 0
-13 -32 0
-13 -11 0
-14 -15 0
-14 -16 0
-14 -17 0
-14 -18 0
-14 -19 0
-14 -20 0
-14 -21 0
-14 -22 0
-14 -23 0
-14 -24 0
-14 -25 0
-14 -27 0
-14 -28 0
-14 -29 0
-14 -30 0
-14 -31 0
-14 -32 0
-14 -11 0
-15 -16 0
-15 -17 0
-15 -18 0
-15 -19 0
-15 -20 0
-15 -21 0
-15 -22 0
-15 -23 0
-15 -24 0
-15 -25 0
-15 -27 0
-15 -28 0
-15 -29 0
-15 -30 0
-15 -31 0
-15 -32 0
-15 -11 0
-16 -17 0
-16 -18 0
-16 -19 0
-16 -20 0
-16 -21 0
-16 -22 0
-16 -23 0
-16 -24 0
-16 -25 0
-16 -27 0
-16 -28 0
-16 -29 0
-16 -30 0
-16 -31 0
-16 -32 0
-16 -11 0
-17 -18 0
-17 -19 0
-17 -20 0
-17 -21 0
-17 -22 0
-17 -23 0
-17 -24 0
-17 -25 0
-17 -27 0
-17 -28 0
-17 -29 0
-17 -30 0
-17 -31 0
-17 -32 0
-17 -11 0
-18 -19 0
-18 -20 0
-18 -21 0
-18 -22 0
-18 -23 0
-18 -24 0
-18 -25 0
-18 -27 0
-18 -28 0
-18 -29 0
-18 -30 0
-18 -31 0
-18 -32 0
-18 -11 0
-19 -20 0
-19 -21 0
-19 -22 0
-19 -23 0
-19 -24 0
-19 -25 0
-19 -27 0
-19 -28 0
-19 -29 0
-19 -30 0
-19 -31 0
-19 -32 0
-19 -11 0
-20 -21 0
-20 -22 0
-20 -23 0
-20 -24 0
-20 -25 0
-20 -27 0
-20 -28 0
-20 -29 0
-20 -30 0
-20 -31 0
-20 -32 0
-20 -11 0
-21 -22 0
-21 -23 0
-21 -24 0
-21 -25 0
-21 -27 0
-21 -28 0
-21 -29 0
-21 -30 0
-21 -31 0
-21 -32 0
-21 -11 0
-22 -23 0
-22 -24 0
-22 -25 0
-22 -27 0
-22 -28 0
-22 -29 0
-22 -30 0
-22 -31 0
-22 -32 0
-22 -11 0
-23 -24 0
-23 -25 0
-23 -27 0
-23 -28 0
-23 -29 0
-23 -30 0
-23 -31 0
-23 -32 0
-23 -11 0
-24 -25 0
-24 -27 0
-24 -28 0
-24 -29 0
-24 -30 0
-24 -31 0
-24 -32 0
-24 -11 0
-25 -27 0
-25 -28 0
-25 -29 0
-25 -30 0
-25 -31 0
-25 -32 0
-25 -11 0
-27 -28 0
-27 -29 0
-27 -30 0
-27 -31 0
-27 -32 0
-27 -11 0
-28 -29 0
-28 -30 0
-28 -31 0
-28 -32 0
-28 -11 0
-29 -30 0
-29 -31 0
-29 -32 0
-29 -11 0
-30 -31 0
-30 -32 0
-30 -11 0
-31 -32 0
-31 -11 0
-32 -11 0
34 35 36 37 38 39 40 41 42 43 44 45 46 47 48 49 33 -1 0
-34 -35 0
-34 -36 0
-34 -37 0
-34 -38 0
-34 -39 0
-34 -40 0
-34 -41 0
-34 -42 0
-34 -43 0
-34 -44 0
-34 -45 0
-34 -46 0
-34 -47 0
-34 -48 0
-34 -49 0
-34 -33 0
-35 -36 0
-35 -37 0
-35 -38 0
-35 -39 0
-35 -40 0
-35 -41 0
-35 -42 0
-35 -43 0
-35 -44 0
-35 -45 0
-35 -46 0
-35 -47 0
-35 -48 0
-35 -49 0
-35 -33 0
-36 -37 0
-36 -38 0
-36 -39 0
-36 -40 0
-36 -41 0
-36 -42 0
-36 -43 0
-36 -44 0
-36 -45 0
-36 -46 0
-36 -47 0
-36 -48 0
-36 -49 0
-36 -33 0
-37 -38 0
-37 -39 0
-37 -40 0
-37 -41 0
-37 -42 0
-37 -43 0
-37 -44 0
-37 -45 0
-37 -46 0
-37 -47 0
-37 -48 0
-37 -49 0
-37 -33 0
-38 -39 0
-38 -40 0
-38 -41 0
-38 -42 0
-38 -43 0
-38 -44 0
-38 -45 0
-38 -46 0
-38 -47 0
-38 -48 0
-38 -49 0
-38 -33 0
-39 -40 0
-39 -41 0
-39 -42 0
-39 -43 0
-39 -44 0
-39 -45 0
-39 -46 0
-39 -47 0
-39 -48 0
-39 -49 0
-39 -33 0
-40 -41 0
-40 -42 0
-40 -43 0
-40 -44 0
-40 -45 0
-40 -46 0
-40 -47 0
-40 -48 0
-40 -49 0
-40 -33 0
-41 -42 0
-41 -43 0
-41 -44 0
-41 -45 0
-41 -46 0
-41 -47 0
-41 -48 0
-41 -49 0
-41 -33 0
-42 -43 0
-42 -44 0
-42 -45 0
-42 -46 0
-42 -47 0
-42 -48 0
-42 -49 0
-42 -33 0
-43 -44 0
-43 -45 0
-43 -46 0
-43 -47 0
-43 -48 0
-43 -49 0
-43 -33 0
-44 -45 0
-44 -46 0
-44 -47 0
-44 -48 0
-44 -49 0
-44 -33 0
-45 -46 0
-45 -47 0
-45 -48 0
-45 -49 0
-45 -33 0
-46 -47 0
-46 -48 0
-46 -49 0
-46 -33 0
-47 -48 0
-47 -49 0
-47 -33 0
-48 -49 0
-48 -33 0
-49 -33 0
51 52 53 50 -1 0
-51 -52 0
-51 -53 0
-51 -50 0
-52 -53 0
-52 -50 0
-53 -50 0
